p cnf 34 97
a 17 0
e 1 2 3 4 5 6 7 8 9 10 11 12 13 14 15 16 18 19 20 21 22 23 24 25 26 27 28 29 30 31 32 33 34 0
3 1 0
3 2 0
-1 -2 -3 0
6 4 0
6 -5 0
-4 5 -6 0
7 3 0
7 6 0
-3 -6 -7 0
-4 8 -9 0
4 -8 -9 0
-4 -8 9 0
4 8 9 0
10 -1 0
10 -2 0
1 2 -10 0
-9 10 -11 0
9 -10 -11 0
-9 -10 11 0
9 10 11 0
14 10 0
14 -13 0
-10 13 -14 0
-15 -12 0
-15 -14 0
12 14 15 0
17 5 0
17 -16 0
-5 16 -17 0
-18 17 0
-18 -9 0
-17 9 18 0
9 -5 -19 0
-9 5 -19 0
9 5 19 0
-9 -5 19 0
-20 5 0
-20 2 0
-5 -2 20 0
-21 -8 0
-21 -20 0
8 20 21 0
-22 -19 0
-22 -21 0
19 21 22 0
23 -18 0
23 -22 0
18 22 -23 0
24 15 0
24 -23 0
-15 23 -24 0
-11 -24 -25 0
11 24 -25 0
-11 24 25 0
11 -24 25 0
-26 2 0
-26 -10 0
-2 10 26 0
-16 -13 -27 0
16 13 -27 0
-16 13 27 0
16 -13 27 0
-26 -27 -28 0
26 27 -28 0
-26 27 28 0
26 -27 28 0
29 -5 0
29 -4 0
5 4 -29 0
30 28 0
30 -29 0
-28 29 -30 0
4 8 -31 0
-4 -8 -31 0
4 -8 31 0
-4 8 31 0
-30 31 -32 0
30 -31 -32 0
-30 -31 32 0
30 31 32 0
33 25 0
33 -32 0
-25 32 -33 0
-7 -33 -34 0
7 33 -34 0
-7 33 34 0
7 -33 34 0
5 -6 0
22 -29 -5 0
-5 -25 21 -17 -13 22 30 -31 0
9 14 5 -16 6 -12 0
6 9 13 -26 0
34 -9 6 31 -13 -5 0
-13 -4 12 -11 31 0
24 19 3 33 0
34 -20 15 0
34 0
